
Gurobi 12.0.1 (win64, C++) logging started Thu Apr 17 16:42:54 2025

Set parameter Username
Set parameter LicenseID to value 2618655
Academic license - for non-commercial use only - expires 2026-02-05
Set parameter Threads to value 8
Set parameter LazyConstraints to value 1
Set parameter PreCrush to value 1
Set parameter Seed to value 0
Set parameter Cuts to value -1
Set parameter TimeLimit to value 28800
Set parameter NumericFocus to value 0
Set parameter SolutionLimit to value 10000
Gurobi Optimizer version 12.0.1 build v12.0.1rc0 (win64 - Windows Server 2022.0 (20348.2))

CPU model: AMD EPYC 7513 32-Core Processor, instruction set [SSE2|AVX|AVX2]
Thread count: 18 physical cores, 18 logical processors, using up to 8 threads

Non-default parameters:
SolutionLimit  10000
TimeLimit  28800
PreCrush  1
Threads  8
LazyConstraints  1

Optimize a model with 232 rows, 441 columns and 1260 nonzeros
Model fingerprint: 0x0d297dcc
Variable types: 0 continuous, 441 integer (441 binary)
Coefficient statistics:
  Matrix range     [1e+00, 1e+00]
  Objective range  [6e+00, 6e+01]
  Bounds range     [1e+00, 1e+00]
  RHS range        [1e+00, 6e+00]

User MIP start produced solution with objective 493.362 (0.00s)
Loaded user MIP start with objective 493.362

Presolve removed 8 rows and 35 columns
Presolve time: 0.00s
Presolved: 224 rows, 406 columns, 1158 nonzeros
Variable types: 0 continuous, 406 integer (406 binary)

Root relaxation: objective 3.490889e+02, 76 iterations, 0.00 seconds (0.00 work units)

    Nodes    |    Current Node    |     Objective Bounds      |     Work
 Expl Unexpl |  Obj  Depth IntInf | Incumbent    BestBd   Gap | It/Node Time

     0     0  349.08891    0    -  493.36173  349.08891  29.2%     -    0s
     0     0  361.48864    0    -  493.36173  361.48864  26.7%     -    0s
     0     0  363.62120    0    -  493.36173  363.62120  26.3%     -    0s
     0     0  371.76545    0   16  493.36173  371.76545  24.6%     -    0s
     0     0  374.06960    0    -  493.36173  374.06960  24.2%     -    0s
     0     0  392.57821    0    6  493.36173  392.57821  20.4%     -    0s
     0     0  394.69159    0   39  493.36173  394.69159  20.0%     -    0s
     0     0  401.74743    0   31  493.36173  401.74743  18.6%     -    0s
     0     0  403.88716    0   39  493.36173  403.88716  18.1%     -    0s
     0     0  410.77712    0   44  493.36173  410.77712  16.7%     -    0s
     0     0  413.76070    0   45  493.36173  413.76070  16.1%     -    0s
     0     0  415.82683    0   59  493.36173  415.82683  15.7%     -    0s
     0     0  417.94362    0   52  493.36173  417.94362  15.3%     -    0s
     0     2  417.94362    0   52  493.36173  417.94362  15.3%     -    0s
*   21    19               4     430.8846754  426.13571  1.10%  61.8    1s

Cutting planes:
  StrongCG: 1
  Lazy constraints: 1038

Explored 49 nodes (2480 simplex iterations) in 1.48 seconds (0.27 work units)
Thread count was 8 (of 18 available processors)

Solution count 2: 430.885 493.362 

Optimal solution found (tolerance 1.00e-04)
Best objective 4.308846754242e+02, best bound 4.308846754242e+02, gap 0.0000%

User-callback calls 396, time in user-callback 1.24 sec
### START EXACT APPROACH ###
ProblemVariant: 4
### START PREPROCESSING ###
## Start infeasible path procedure ## 
Deleted arcs: 14
Infeasible tail paths: 0
Infeasible 2-node combinations: 7
## Start extended infeasible path procedure ##
Deleted arcs: 14
Infeasible tail paths: 0
Infeasible 2-node combinations: 7
## Start start solution procedure ##
Start solution with 6 Vehicles and total costs 493.362 in 0.0088765 s.
### END PREPROCESSING ###
Route 0 0-2-1-0 : weight util 0.827586 | volume util 0.277467 | feasible with packing heuristic | feasible with CP model
Route 1 0-5-20-11-19-6-0 : weight util 1.000000 | volume util 0.541422 | infeasible with packing heuristic | feasible with CP model
Route 2 0-7-9-3-4-0 : weight util 0.965517 | volume util 0.385956 | feasible with packing heuristic | feasible with CP model
Route 3 0-13-14-15-0 : weight util 0.931034 | volume util 0.663778 | feasible with packing heuristic | feasible with CP model
Route 4 0-16-18-10-12-0 : weight util 0.982759 | volume util 0.250267 | feasible with packing heuristic | feasible with CP model
Route 5 0-17-8-0 : weight util 0.965517 | volume util 0.092444 | feasible with packing heuristic | feasible with CP model
